52
3 0 7
3 1 1
3 2 4
4 3 1
5 0 7
5 1 4
6 3 6
7 0 6
7 1 8
7 3 4
8 2 3
8 3 6
8 5 6
8 7 7
9 0 8
9 2 3
9 3 6
10 0 8
10 1 4
10 2 8
10 4 3
10 9 3
11 0 3
11 1 3
11 4 2
11 5 1
12 0 2
12 1 1
12 3 3
12 4 3
12 5 8
12 6 5
12 7 5
12 8 2
12 11 8
13 0 4
13 4 3
13 5 2
13 9 3
13 11 1
13 12 5
14 2 6
14 4 8
14 5 3
14 6 7
14 8 2
14 10 8
14 11 3
14 12 5
14 13 5
15 3 7
15 4 4
15 7 2
15 8 5
15 12 1
15 13 2
16 0 4
16 1 7
16 2 1
16 3 3
16 5 6
16 7 3
16 10 1
16 11 1
16 13 2
16 14 3
16 15 8
17 0 5
17 3 7
17 4 1
17 5 3
17 6 7
17 7 4
17 8 7
17 10 5
17 11 3
17 14 8
17 15 1
17 16 4
18 0 2
18 2 4
18 3 3
18 4 5
18 5 3
18 7 8
18 9 3
18 12 4
18 13 2
18 14 5
18 16 7
19 0 5
19 1 3
19 3 6
19 5 4
19 11 3
19 13 8
19 16 4
20 0 4
20 1 4
20 3 1
20 4 2
20 5 8
20 8 2
20 9 3
20 11 3
20 12 3
20 13 6
20 14 3
20 16 5
20 17 6
20 18 1
20 19 6
21 0 8
21 3 3
21 5 6
21 6 3
21 9 4
21 12 6
21 13 7
21 16 1
21 17 2
21 20 3
22 0 4
22 1 7
22 2 4
22 4 2
22 8 1
22 9 8
22 10 7
22 11 7
22 12 5
22 15 2
22 18 7
22 19 6
22 20 5
22 21 7
23 5 7
23 6 1
23 9 7
23 11 4
23 12 8
23 13 3
23 14 1
23 16 3
23 17 3
23 18 3
23 19 6
23 20 6
23 22 1
24 0 2
24 4 6
24 5 4
24 7 4
24 9 6
24 10 3
24 12 2
24 13 4
24 14 3
24 16 7
24 17 8
24 21 7
24 22 7
25 0 1
25 1 7
25 2 3
25 5 1
25 6 1
25 10 8
25 13 1
25 16 6
25 18 1
25 20 1
25 21 1
25 24 7
26 0 1
26 4 1
26 8 6
26 11 1
26 13 8
26 17 5
26 21 4
26 23 5
26 24 1
26 25 2
27 6 4
27 7 7
27 11 3
27 12 4
27 15 6
27 18 3
27 19 3
27 20 8
27 21 3
27 22 2
27 23 1
27 24 6
27 26 5
28 1 3
28 4 2
28 6 6
28 7 5
28 8 3
28 11 6
28 12 1
28 13 3
28 14 2
28 15 5
28 18 4
28 22 6
28 24 2
28 26 1
29 2 4
29 3 7
29 5 6
29 6 2
29 7 8
29 9 5
29 12 1
29 14 6
29 15 8
29 16 2
29 18 1
29 19 4
29 22 4
29 24 1
29 25 8
29 28 6
30 0 5
30 2 7
30 3 8
30 7 3
30 12 4
30 14 5
30 18 8
30 19 8
30 21 1
30 23 2
30 25 5
30 26 3
30 27 8
30 28 3
30 29 8
31 0 3
31 2 3
31 3 3
31 4 4
31 5 3
31 9 7
31 11 8
31 12 2
31 14 5
31 17 2
31 22 1
31 23 6
31 26 5
31 28 1
32 6 5
32 9 3
32 10 6
32 14 2
32 17 7
32 19 1
32 21 1
32 22 7
32 23 3
32 24 5
32 28 8
32 30 4
33 0 4
33 1 8
33 4 4
33 5 3
33 11 5
33 12 1
33 13 7
33 19 7
33 20 8
33 22 6
33 25 4
33 26 2
33 29 7
33 30 1
33 31 3
33 32 5
34 1 2
34 2 2
34 3 6
34 4 2
34 6 7
34 11 4
34 12 1
34 13 2
34 22 7
34 24 7
34 26 4
34 27 6
34 28 3
34 29 5
34 30 7
34 31 7
34 32 3
35 0 2
35 1 4
35 2 8
35 3 1
35 4 8
35 7 3
35 8 2
35 9 3
35 10 3
35 12 2
35 13 7
35 17 5
35 18 6
35 19 4
35 21 4
35 24 8
35 29 1
35 31 6
35 32 3
35 33 4
36 0 4
36 1 3
36 2 7
36 3 4
36 4 1
36 5 8
36 14 2
36 17 5
36 20 7
36 22 7
36 26 7
36 27 8
36 28 1
36 31 6
36 32 4
36 33 1
37 5 6
37 11 2
37 12 3
37 14 5
37 16 4
37 17 4
37 19 8
37 22 7
37 23 7
37 24 8
37 27 2
37 31 3
37 32 4
37 33 6
37 34 8
38 1 4
38 4 6
38 9 5
38 10 7
38 11 5
38 13 8
38 14 5
38 15 3
38 16 1
38 18 7
38 19 1
38 20 7
38 24 3
38 25 2
38 30 4
38 32 1
38 33 5
38 35 5
38 36 3
39 0 5
39 1 7
39 5 3
39 6 6
39 7 7
39 10 7
39 11 6
39 12 1
39 16 7
39 24 1
39 27 5
39 29 8
39 30 2
39 31 5
39 32 4
39 33 6
39 35 4
39 36 5
40 1 2
40 5 8
40 6 4
40 7 5
40 10 1
40 13 3
40 17 3
40 19 5
40 20 2
40 21 5
40 22 2
40 25 2
40 27 7
40 32 8
40 34 2
40 35 1
40 36 5
40 37 2
40 39 1
41 1 5
41 2 5
41 3 1
41 4 4
41 5 7
41 6 4
41 10 1
41 11 6
41 13 1
41 14 5
41 17 4
41 18 7
41 19 3
41 21 8
41 22 7
41 23 8
41 25 6
41 28 1
41 29 1
41 30 1
41 32 4
41 37 4
41 38 2
41 39 5
41 40 6
42 3 7
42 4 3
42 6 4
42 7 1
42 8 8
42 11 1
42 15 3
42 16 8
42 19 7
42 20 1
42 24 1
42 27 8
42 29 7
42 34 1
42 37 4
42 38 2
42 41 1
43 2 1
43 5 7
43 8 7
43 9 1
43 12 5
43 14 1
43 17 2
43 18 3
43 19 7
43 20 2
43 21 1
43 22 5
43 23 3
43 24 1
43 26 8
43 30 2
43 32 5
43 33 8
44 0 2
44 1 2
44 3 6
44 7 2
44 10 7
44 11 1
44 13 7
44 14 7
44 17 4
44 20 1
44 21 3
44 24 6
44 26 1
44 27 8
44 28 7
44 29 3
44 31 2
44 32 8
44 33 4
44 34 8
44 35 6
44 37 1
44 39 8
44 43 3
45 1 2
45 3 3
45 4 1
45 8 1
45 10 8
45 17 4
45 19 1
45 20 8
45 25 2
45 26 3
45 30 6
45 34 7
45 35 1
45 37 3
45 38 1
45 40 4
45 41 1
45 43 3
45 44 1
46 0 3
46 1 3
46 4 2
46 9 8
46 11 7
46 14 1
46 15 3
46 16 3
46 18 4
46 20 2
46 25 7
46 27 7
46 29 7
46 31 5
46 34 7
46 37 5
46 41 1
46 45 3
47 0 2
47 1 6
47 2 8
47 3 7
47 6 8
47 7 2
47 10 8
47 11 5
47 13 3
47 14 2
47 16 1
47 17 3
47 18 6
47 21 8
47 23 7
47 24 7
47 25 7
47 26 2
47 27 8
47 29 4
47 30 2
47 32 5
47 35 3
47 38 6
47 40 8
47 42 3
47 44 1
47 45 3
47 46 6
48 0 8
48 5 7
48 6 5
48 9 4
48 12 3
48 17 5
48 18 1
48 20 1
48 22 2
48 23 4
48 24 5
48 25 4
48 27 6
48 31 8
48 33 5
48 39 6
48 45 6
48 46 4
49 0 2
49 1 2
49 3 3
49 4 1
49 5 4
49 8 7
49 9 5
49 14 7
49 15 5
49 16 4
49 17 7
49 18 8
49 22 4
49 24 3
49 26 8
49 27 3
49 30 4
49 33 4
49 35 2
49 38 6
49 41 2
49 42 5
49 43 1
49 46 3
49 47 5
49 48 3
50 0 1
50 1 2
50 3 4
50 4 6
50 5 1
50 6 4
50 7 1
50 10 2
50 13 5
50 18 5
50 20 3
50 21 4
50 22 5
50 24 3
50 26 2
50 29 8
50 35 1
50 37 7
50 39 5
50 46 5
50 47 6
50 48 7
50 49 1
51 2 1
51 4 7
51 10 4
51 11 1
51 12 1
51 13 4
51 15 1
51 16 2
51 18 3
51 19 6
51 20 2
51 21 6
51 22 7
51 24 6
51 26 4
51 27 5
51 29 7
51 30 3
51 31 2
51 32 8
51 34 4
51 36 4
51 38 5
51 42 3
51 43 1
51 44 4
51 46 2
51 48 3
51 50 5
